1
43350.00 45950.00 35800.00  23250.00
20
706 779 667  221 20
236 206 89  70 2
573 397 223  59 141
152 410 27  292 297
575 787 560  164 91
743 598 637  221 268
790 62 193  12 117
63 485 552  44 63
484 170 240  61 192
409 419 166  121 277
615 706 7  27 64
224 268 679  295 78
18 177 512  81 215
155 383 619  16 202
442 173 326  25 148
208 241 114  49 268
592 19 79  74 159
27 476 290  213 47
98 695 252  136 289
461 658 230  31 209
